c Generated map
c Size: 9 * 9, weights in range: 1 to 10, walls: True, with ratio 0.05
c dim 7 of 8
c
p sp 81 130
c graph contains 81 nodes and 130 arcs
c
a 1 10 7
a 10 1 7
a 1 2 3
a 2 1 3
a 2 11 9
a 11 2 9
a 2 3 4
a 3 2 4
a 3 12 3
a 12 3 3
a 3 4 7
a 4 3 7
a 4 13 1
a 13 4 1
a 4 5 2
a 5 4 2
a 5 14 2
a 14 5 2
a 5 6 2
a 6 5 2
a 6 15 5
a 15 6 5
a 6 7 9
a 7 6 9
a 7 16 6
a 16 7 6
a 7 8 1
a 8 7 1
a 8 17 2
a 17 8 2
a 8 9 2
a 9 8 2
a 9 18 4
a 18 9 4
a 10 19 4
a 19 10 4
a 10 11 3
a 11 10 3
a 11 20 7
a 20 11 7
a 11 12 3
a 12 11 3
a 12 21 7
a 21 12 7
a 12 13 8
a 13 12 8
a 13 22 10
a 22 13 10
a 13 14 3
a 14 13 3
a 14 23 6
a 23 14 6
a 14 15 10
a 15 14 10
a 15 24 1
a 24 15 1
a 15 16 5
a 16 15 5
a 16 25 6
a 25 16 6
a 16 17 3
a 17 16 3
a 17 26 10
a 26 17 10
a 17 18 3
a 18 17 3
a 18 27 3
a 27 18 3
a 19 28 8
a 28 19 8
a 19 20 10
a 20 19 10
a 20 29 3
a 29 20 3
a 20 21 7
a 21 20 7
a 21 30 6
a 30 21 6
a 21 22 1
a 22 21 1
a 22 23 6
a 23 22 6
a 23 24 7
a 24 23 7
a 24 33 9
a 33 24 9
a 24 25 2
a 25 24 2
a 25 34 8
a 34 25 8
a 25 26 4
a 26 25 4
a 26 35 10
a 35 26 10
a 26 27 8
a 27 26 8
a 27 36 5
a 36 27 5
a 28 37 2
a 37 28 2
a 28 29 3
a 29 28 3
a 29 38 1
a 38 29 1
a 29 30 4
a 30 29 4
a 30 39 8
a 39 30 8
a 33 42 1
a 42 33 1
a 33 34 7
a 34 33 7
a 34 43 7
a 43 34 7
a 34 35 10
a 35 34 10
a 35 44 8
a 44 35 8
a 35 36 5
a 36 35 5
a 36 45 1
a 45 36 1
a 37 46 7
a 46 37 7
a 37 38 7
a 38 37 7
a 38 47 7
a 47 38 7
a 38 39 2
a 39 38 2
a 39 48 3
a 48 39 3
a 39 40 6
a 40 39 6
a 40 49 1
a 49 40 1
a 40 41 10
a 41 40 10
a 41 50 1
a 50 41 1
a 41 42 8
a 42 41 8
a 42 51 6
a 51 42 6
a 42 43 5
a 43 42 5
a 43 52 8
a 52 43 8
a 43 44 6
a 44 43 6
a 44 53 5
a 53 44 5
a 44 45 8
a 45 44 8
a 45 54 10
a 54 45 10
a 46 55 7
a 55 46 7
a 46 47 6
a 47 46 6
a 47 56 2
a 56 47 2
a 47 48 10
a 48 47 10
a 48 57 8
a 57 48 8
a 48 49 8
a 49 48 8
a 49 58 7
a 58 49 7
a 49 50 6
a 50 49 6
a 50 59 9
a 59 50 9
a 50 51 9
a 51 50 9
a 51 60 7
a 60 51 7
a 51 52 8
a 52 51 8
a 52 61 5
a 61 52 5
a 52 53 7
a 53 52 7
a 53 62 5
a 62 53 5
a 53 54 1
a 54 53 1
a 54 63 3
a 63 54 3
a 55 64 7
a 64 55 7
a 55 56 9
a 56 55 9
a 56 65 5
a 65 56 5
a 56 57 3
a 57 56 3
a 57 66 1
a 66 57 1
a 57 58 2
a 58 57 2
a 58 67 6
a 67 58 6
a 58 59 7
a 59 58 7
a 59 68 3
a 68 59 3
a 59 60 9
a 60 59 9
a 60 69 2
a 69 60 2
a 60 61 3
a 61 60 3
a 61 62 5
a 62 61 5
a 62 71 6
a 71 62 6
a 62 63 8
a 63 62 8
a 63 72 1
a 72 63 1
a 64 73 1
a 73 64 1
a 64 65 7
a 65 64 7
a 65 74 3
a 74 65 3
a 65 66 3
a 66 65 3
a 66 75 5
a 75 66 5
a 66 67 9
a 67 66 9
a 67 76 4
a 76 67 4
a 67 68 4
a 68 67 4
a 68 77 3
a 77 68 3
a 68 69 9
a 69 68 9
a 71 80 4
a 80 71 4
a 71 72 8
a 72 71 8
a 72 81 9
a 81 72 9
a 73 74 5
a 74 73 5
a 74 75 8
a 75 74 8
a 75 76 2
a 76 75 2
a 76 77 1
a 77 76 1
a 79 80 7
a 80 79 7
a 80 81 10
a 81 80 10
